
 102   30
  10   10   10   10   10   10   10   10   10   10   10   10   10   10   10   10   10   10   10   10   10   10   10   10   10   10   10   10   10   10

   0   0   0   0   0   0   0   0   0   0   0   0   0   0   0   0   0   0   0   0   0   0   0   0   0   0   0   0   0   0   0  25 2 3 4 5 6 7 8 9 10 11 12 13 14 15 16 18 21 25 26 30 34 36 44 45 51 
   7   0   0   0   0   0   0   0   0   0   0   0   0   0   0   0   0   0   0   0   0   0   0   0   0   0   0   1   1   1   1  20 74 68 67 64 62 61 56 52 49 47 42 41 39 37 35 33 32 27 24 23 
   5   0   0   1   0   1   0   0   0   0   1   0   0   0   4   0   1   0   0   0   0   0   4   0   1   0   1   0   0   0   0  16 101 75 74 70 68 66 65 62 61 56 53 50 49 35 28 17 
   6   2   0   0   0   0   2   0   0   2   0   0   0   1   4   0   0   0   1   0   0   0   0   0   0   1   0   0   0   0   0  13 74 68 61 59 53 50 49 41 33 32 29 28 17 
   6   0   0   4   0   0   9   0   0   0   0   0   0   0   0   0   0   0   0   0   0   0   0   0   0   0  10   5   0   0   0  13 75 71 65 60 54 53 50 48 47 42 41 37 17 
   9   0   0   3   0   0   0   0   0   0   0   0   0   0   0   0   0   5   0   0   1   0   0   0   0   0   0   0   0   0   0  12 88 85 74 73 65 60 54 50 49 32 23 19 
  10   0   0   7   0   0   0   0   2   0   0   0   1   0   0   0   6   0   0   0   2   0   0   0   0   0   0   0   0   0   0  18 88 87 85 75 66 64 62 60 59 57 54 53 46 42 40 38 32 22 
   1   6   1   0   0   0   0   1   0   0   0   0   0   0   0   0  10   0   0   0   0   0   3   0   0   0   0   0   0   0   0  18 101 87 83 74 70 67 66 64 62 61 58 54 52 49 43 38 37 20 
   2   0   2   0   0   0   0   0   0   0   0   0   0   0   0   0   0   0   0   0   0   0   0   0   0   0   0   0   0   0   0  14 88 85 73 67 66 62 60 54 52 49 47 32 28 23 
   7   0   0   0   0   0   0   0   0   0   0   0   0   0   0   0   0   0   0   0   0   0  10   2   0   0   5   0   0   0   0  19 85 75 73 71 66 60 58 57 55 53 52 50 49 48 42 40 39 37 31 
   6   0   0   0   0   0   0   0   0   0   0   1   9   0   0   0   0   0   6   0   0   0   0   0   0   0   0   0   0   0   7  23 101 88 87 86 85 83 81 79 75 73 67 66 62 60 59 58 57 55 53 48 47 40 38 
   7   0   9   0   0   0   0   0   0   0   9   0   0   0   0   0   0   4   0   1   0   0   0   0   0   0   5   0   0   0   0  13 100 88 87 86 83 75 70 59 57 41 40 35 33 
   7   0   0   0   0   0   0   0   0   0   0   0   0   0   0   0   0   0   0   0   0   0   0   0   0   0   8   4   6   0   0  15 88 86 84 73 72 69 67 64 62 58 57 52 48 41 38 
   9   0   7   0   0   7   0   0   0   7   0   0   0   0   0   0   0   0   0   0  10   0   0   0   0   0   0   0   8   0   0  14 101 100 87 86 84 81 58 57 54 48 47 42 40 33 
  10   0   0  10   0   0   0   0   0   0   0   5   0   0   0   1   0   0   6   0   0   0   0   0   0   0   0   6   5   0   0  10 100 74 69 65 60 57 53 52 33 29 
   1   3   0   0   0   0   0   0   0   0   9   0   7   0   0   0   0   0   0   6   0   2   5   0   0   5   0   0   6   0   0  16 101 85 84 83 81 79 75 71 66 62 57 54 53 52 50 47 
   8   0   0   0   0   0   0   0   0   0   0   0   0   7   0   0   0   0   0   0   8   7   0   0   0   0   0   0   0   0   0  15 100 88 85 84 83 82 73 69 67 64 63 58 57 52 39 
  10   0   0   0   1   0   0   0   0   0   4   0   0   0   6   0   0   0   0   0   0   0   9   0   0   0   0   0   0   0   0  16 101 100 99 87 86 81 79 73 72 66 63 59 58 57 54 48 
   8   0   0   0   0   0   6   0   4   0   0   0   0   0   0   0   0   0   0   0   5   9   3   0   6   0   0   0   0   0   0   9 87 79 75 64 62 57 53 41 38 
   3   0   0   0   0   0   0   0   0   0   0   0   0   9   7   7   0   7   0   0   0   0   0   0   0   0   8   0   0   0   0  10 100 99 86 84 81 72 60 59 57 33 
   2   0   0   0   0   0   3   5   9   0   0   6   9   7   0   0   0   0   0   0   0   0   0   0   0   0   0   0   0   0   0  10 87 79 78 74 70 69 64 57 53 38 
   3   0   0   0   0   0   0   0   0   0   6   0   6   0   0   0   0   6   0   0   0   0   4   0   0   0   0   0   0   0   0  13 101 100 97 84 83 80 79 77 74 73 72 58 47 
  10   0   9   0   0   8   0   0   0   0   0   0   0   8   0   8   0   0   8   0   0   7   0   0   0   0   0   0   0   0   0  11 100 97 84 83 81 79 72 63 59 58 53 
   3   0   0   0   0   6   0   5  10   0   6   0   0   0   0   0   0   3   0   0   0   0   0   0   0   0   0   0   0   0   0  12 101 100 99 97 94 87 85 79 71 63 58 57 
   5   0   0   0   0   0   0   0   0   0   0   0   0   0   0   0   0   3   0   0   7  10   0   0   0   0   0   8   0   0   0  11 101 100 99 91 80 79 73 70 64 63 54 
   3   0   0   0   5   0   8   0   0   0   0   0   0   0   0   0   2   0   0   0   0   0   0   0   7   0   0   0   0   0   5  10 83 79 74 73 72 70 64 63 60 58 
  10   0   4   0   6   0   0   0   0   0   0   0   0   0   0   0   0   0   0   0   0   0   0   0   0   0   0   0   0   0   0   7 101 83 79 78 73 57 38 
   5   0   0   0   0   8   0   0   0   0   6   0   0   0   0   0   0   0   0   0   0   5   4   0   0   0   0   0   0   0   0   6 87 82 79 64 57 38 
   7   4   0   0   6   0   0   0   0   0   0   5   0   0   0   0   0   0   0   0   0   0   0   0   0   0   4   0   0   0   0   9 101 97 81 79 72 71 66 63 47 
   5   0   0   0   0   0   0   0   0   0   5   0   0   0   0   8   0   0   0   0   0   0   0   0   0   0   0   0   0   8   0  11 98 97 96 85 83 81 75 71 69 63 53 
   6   0   0   0   0   0   0   0   0   0   0   0   0   0   0   0   0   0   0   0   0   0   0   0   5   6   5   0   0   0   0  13 101 100 98 97 92 84 83 82 81 80 78 77 65 
   1   0   0   0   0   0  10   0   0   0   6   0   0   0   0   0   6   0   0   0   0   0   0   0   0   0   7   0   0   8   0  13 101 99 98 95 92 86 81 80 78 77 76 72 70 
   8   3   0   0  10   0   0   0   0   0   0   0   6   0   0   3   0   0   4   0   0   0   0   0   0   0   0   0   0   0   0  10 97 96 94 85 82 80 79 78 71 63 
   5   0   0   0   0   0   0   0   0   0   0   0   6   0   0   0   0   0   0   0   0   0   0   0   0   0   0   0   0   6   0  12 97 95 92 91 86 81 79 78 77 76 72 70 
   4   0   0   0   0   0   0   0   0   0   0   0   0   0   7   0   0   8   0   0   0   0   0   9   0   0   0   0   0   8   0   8 84 81 80 79 77 76 73 54 
   9   0   0   0   0   0   9   0   6   0   0   0   0   0   0   0   0   0   0   0   0   0   0   0   0   0   0   0   0   0   0   8 101 97 96 82 81 80 71 63 
   8   7   0   0   0   0   0   0   0   0   0   0   0   0   0   0   0   0   0   0   0   8   0   0   0   0   0   0   0   0   0  10 100 97 96 94 91 89 88 84 79 77 
   9   0   0   4   0   0  10   0   0   0   0   0   5   0   0   7   0   0   7   0   0   0   0   0   0   0   0   0   0   0   0   7 100 99 98 97 93 71 63 
   3   0   0   0   0   0   0   0   0   0   0   6   6   0   0   0   0   0   0   0   0   0   0   0  10   0   6   0   0   0   0  11 97 96 95 94 92 91 86 80 79 76 72 
   2   0   0   0   0   0   0   0   0   6   0   0   0   0   4   9   0   0   0   0   0   0   0   0   0   0   0   0   0   0   0  10 99 98 96 95 94 92 91 77 76 72 
   1   0   8   0   0   0   0   0   0   0   0   0   0   5   0   0   0   0   0   0   6   0   0   0   0   0   0   0   0   0   0   9 101 99 96 95 93 92 82 76 66 
   5   0   0   0   0   0   0   0   3   0   0   0   0   0   0   0   6   0   0   0  10   0   0   6   0  10   0   0   0   0   0   9 97 95 92 91 83 80 79 77 76 
   2   0   0   0   0   2   0   0   7   0   0   0   0   0   0   0   0   0   0   0   0   0   0   0   9   0   0   0   0   0   0   8 96 92 91 84 81 80 77 73 
   1   0   8   0   0   0   0   0   0   0   0   0   0   0   0   0   0   0   0   0   0   0  10   0   0   0   0   0   0   0   0  10 100 98 96 95 94 93 92 90 78 74 
  10   0   0   0   0   0   0   0   0   0   0   0   0   7   0   4   9   0   0   0   0   0   0   0   4   0   5   0   0   5   0  10 98 97 96 95 93 92 90 78 76 69 
   7   0   0   9   7   0   0   8   0   0   0   7   0   0   0   0   0   0   0   0   5   0   0   0   0   0   0   0   7   0   0   8 99 93 92 91 78 77 76 70 
   4  10   0   6   0   0   0   0   5   0   0   7   6   6   0   0   0   3   0   0   0   0   0   0   0   5   0   0   6   0   0   8 99 98 95 92 91 90 78 70 
   2   0   0   0   0   8   0   0   7   0   0   0   0   0   0   0   0   7   0   0   0   0   0   0   4   0   0   0   0   0   0   7 98 95 93 92 90 74 70 
  10   0   0   0   0   0   0   0   8   0   0   0   0   0   0   0   7   0   0   0   0   0   0   0   0   0   0   0   0   0   0   7 97 96 92 89 82 79 77 
   4   0   7   0   0   0   0   0   0   0   0   0   0   0   0   0   7   8   6   0   0   0   0   0   0   0   0   0   0   0   0   7 99 96 93 91 77 76 69 
   3   0   0   0   0   0   0   0   0   8   0   0   0   0   0   0   6   5   0   0   4   0   0   0   8   0   9   0   0   0   0   6 96 95 93 83 78 74 
   2   0   4   0   5   6   0   0   3   0   0   0   0   0   6   0   0   0   0   0   0   0   0   0   0   0   0   0   0   0   0   7 99 96 94 93 91 90 76 
   2   0   0   0   0   0   6   0   0   0   0   0   0   0   0   0   0   0   0   0   0   0   0   6   0   0   0   0   0   0   0   6 99 95 93 90 82 76 
   2   0   0   0   0   0   0   0   0   0   0   0   0   0   0   0   0   0   0   0   0   0   0   0   0   0   0   0   0   0   0   6 98 97 95 92 90 69 
   2   0   0   0   0   0   0   0   0   0   0   7   0   0   0   0   6   9   0   0   0   0   0   6   0   0   0   0   0   0   0   6 100 98 97 89 82 77 
   7   0   0   0   0   0   6   0   7   0   0   0   0   0   8   0   0   0   0   0   0   0   0   0   0   0   0   0   0   0   0   7 99 97 95 94 92 91 89 
   5  10   0   0   0   0   0   0   0   0   0   0   0   0   0   0   0   5   0   0   0   4   6   0   0   0   0   0   0   0   0   6 96 92 91 90 89 80 
   5   0   0   0   0   0   0   0   0   0   0   0   0   0   0   0   0   0   0   5   0   9   0   0   0   0   6   0   0   0   0   5 98 91 90 78 76 
  10   0   0   0   0   0   0   9   0   0   0   0   0   0   0   0   0   0   0   0   0   0   0   0   0   0   7   0   0   0   0   4 95 92 90 69 
   5   0   0   0   0   0   0   0   0   0   0   0   7   0   0   0   0   0   0   0   0   0   0   0   0   6   0   0   0   0   0   5 97 95 94 92 89 
   6   0   0   0   0   0   0   0   0   0   0   0   6   5   0   0   0   0   0   0   0   0   0   5   0   0   0   0   0   0   5   5 100 99 98 91 89 
   2   7   0   0   0   0   0   0   0   0   8   4   0   0   0   0   0   0   0   0   8   0   0   0   0   0   0   0   0   0   0   4 95 93 90 78 
   7   7   0   0   0   0   0   0   0   0   0   0   0   0   0   0   0   0   0   0   0   0   0   0   0   0   0   0   0   0   0   3 95 77 76 
   5   0   0   0   0   0   0   0   0   0   0   0   0   0   0   0   0   0   0   0   0   0   0   0   6   0   0   0   0   0   0   3 95 81 76 
   6   0   8   0   0   0   0   0   0   0   0   0   0   0   0   0   0   0   7   0   0   0   0   0   0   0   0   0   0   0   0   3 91 79 76 
   4   0   0   0   0   0   0   0   0   0   0   0   0   0   0   7   0   0   0   0   0   0   0   0   0   0   6   0   0   0   8   3 98 91 90 
   6   0   0   0   0   4   0   0   0   0   0   0   0  10   0   0   0   0   0   0   0   0   8   0   0   0   0   0   0   0   5   2 92 77 
   9   0   0   0   0   0   0   0   0   0   0   0   0   0   0   0   0   5   0   0   0   0   0   0   0   0   0   8   0   0   0   2 94 77 
   2   0   0   0   0   0   0   0   0   0   0   0   0   0   0   0   0   6   6   0   0   0   0   0   0   6   0   0   0   0   0   2 94 89 
   8   0   0   0   0   0   0   0   0   0   0   0   0   0   0   0   0   0   0   0   0   0   0   0   0   0   0   0   0   0   6   2 96 94 
   3   0   0   0   0   0   5   0   0   0   5   0   0   0   4   0   0   0   0   0   0   0   0   0   0   7   0   0   5   0   0   2 92 91 
   5   0   0   0   0   5   0   0   0  10   0   9   0   0   0   0   0   0   0   0   0   0   0   0   0   7   0   0   5   0   0   2 93 89 
   3   0   0   0   0   7   0   0   0   7   0   0   0   0   4   0   0   0   0   0   0   0   7   0   0   0   0   0   0   0   0   2 90 89 
   8   0   0   7   0   0   0   0   0   0   0   0   0   0   0   0   0   0   0   8   0   0   0   0   0   0   0   0   0   0   0   2 91 89 
   7   0   0   0   0   0   0   0   0   0   0   8   6   0   0   0   0   0   7   0   0   0   0   0   0   0   9   0   0   0   6   2 93 92 
   1   0   0   0   0   9   0   0   0   0   0   0   0   3   0   0   0   0   0   0   0   0   0   0   0   0   0   0   0   0   0   1 89 
   3   0   0   0   9   7   0   8   0   0   0   0   0   0   0   0   0   0   0   0   0   0   0   0   4   0   5   6   0   0   0   1 90 
   8   0   7   0   5   0   0   0   0   0   0   0   0   0   0   0   0  10   0   0   0   0   4   0   0   0   4   0   9   0   6   1 89 
   9   0   0   0   0   0   0   0   0   0   0   0   0   0   0   0   0   0   0   0   0   0   0   0   0   0   0   0  10   0   7   1 93 
  10   0   0   0   0   0   0   0   0   0   6   5   0   0   0   4   0   0   0   0   0   3   0   0   0   0   3   0   0   0   0   1 93 
   1   0   0   0   0   5   0   0   5   0   3   0   0   0   0   0   0   0   0   0   0   0   0   0   0   0   0   0   0   0   0   1 94 
   9   0   0   0   0   0   0   7   0   0   0   0   0   0   0   0   0   0   0   0   0   5   0   0   0   0   0  10   2   0   0   1 91 
   3   0   0   0   0  10   0   0   0   0   0   0   0   0   0   0   0   0   9   0   0   0   0   0   0   0   0   0   7   0   0   1 94 
   1   0   0   8   6   0   3   0   0   0   0   0   0   0   0   0   0   0   0   0   0   0   0   4   0   0   0   0   0   0   0   1 95 
   9   0   0   0   0   5   0   0   0   0   0   0   0   4   0   0   6   0   0   0   0   6   0  10   0   0   0   0   0   0   0   1 95 
   4   0   0   6   0   0   0   0   0   0   0   0   0   0   0   0   0   8   0   0   0   0   0   0   0   0   0   0   0   0   0   1 89 
   4   7   0   0   0   0   0   5   0   0   0   0   0   0   0   0   0   0   0   6   0   0   0   0   0   0   0   0   0   0   0   1 92 
   7   3   0   0   0   0   0   0   0   0   7   0   0   0   0   0   0   0   0   8   0   0   0   5   0   0   0   0   0   0   0   1 92 
   1   0   0   0   0   4   0   0   0   0   0   8   0   0   0   0   0   0   0   5   0   0   0   0   0   0   0   0   0   0   6   1 102
   9   0   0   0   0   0   0   0   8   0   0   0   0   0   8   0   0   0   0   0   0   0   0   0   0   0   7   0   0   0   0   1 102
   7   0   0   0   0   0   0   0   0   0   0   0   0   0   0   0   0   0   0   0   0   0   0   6   0   0   0   0   0   0   0   1 102
   3   9   0   0   0   0   0   0   0   0   0   0   0   0   6   0   0   0   0   0   6   0   5   8   0   0   6   7   7   0   0   1 102
   8   0   0   0   0   0   0   0   0   0   0   0   6   0   0   0   0   0   0   0   0   0   0   0   0   0   0   5   0   0   0   1 102
   6   0   0   0   0   0   0   0   0   0   0   0   0   0  10   0   0   0   0   0   0   3   0   5   0   0   6   0   0   0   7   1 102
   8   5   2   0   0   0   5   0   0   0   0   0   0   0   0   0   0   0   0   0   0   0   0   0   0   0   0   0   0   0   0   1 102
  10   0   0   0   0   0   0   0   0   0   0   0   0   0   0   0   0   0   0   0   0   0   0   0   0   0   0   0   0   0   0   1 102
   9   0   0   0   0   0   0   0   6   2   0   0   0   0   0   0   0   0   0   0   0   0   0   0   8   0   4   0   0   0   9   1 102
   8   0   0   4   0   0   4   0   0   0   9   0   0   0   0   0   0   0   7   9   0   0   8   0   0   0   0   0   0   0   0   1 102
   9   0   0   0   0   0   3   0   0   0   0   0   0   6   0   8   0   0   0   0   0   0   0   0   0   0   0   0   0   0   0   1 102
   5   0   8   7   0   0   7   0   0   0   0   0   4   0   0   0   6   0   0   0   0   0   0   0   0   0   8   0   0   0   0   1 102
   4   7   0   8   0   0   0   0   0   0   0   6   0   0   0   0   0   0   4   0   0   0   0   0   0   7   0   0   6   0   0   1 102
   0   0   0   0   0   0   0   0   0   0   0   0   0   0   0   0   0   0   0   0   0   0   0   0   0   0   0   0   0   0   0   0 
